p wcnf 190 285 286 
1 68 13 0 
1 -103 41 0 
1 112 52 0 
1 -25 42 0 
1 -33 27 0 
1 -185 88 0 
1 -54 -178 0 
1 43 -172 0 
1 -97 -7 0 
1 -75 -112 0 
1 -97 131 0 
1 179 -19 0 
1 155 -5 0 
1 61 159 0 
1 20 -150 0 
1 127 71 0 
1 -135 106 0 
1 113 -75 0 
1 -181 -151 0 
1 29 52 0 
1 -79 -16 0 
1 -158 -38 0 
1 76 26 0 
1 -60 94 0 
1 -95 -167 0 
1 -64 -164 0 
1 47 -112 0 
1 159 9 0 
1 -2 142 0 
1 80 21 0 
1 178 -83 0 
1 82 -95 0 
1 165 -172 0 
1 -112 -117 0 
1 94 64 0 
1 -46 87 0 
1 -139 115 0 
1 -84 58 0 
1 -149 -2 0 
1 -140 89 0 
1 121 -15 0 
1 -121 166 0 
1 -3 98 0 
1 -25 98 0 
1 -163 -24 0 
1 73 66 0 
1 -64 45 0 
1 -117 -190 0 
1 162 -177 0 
1 63 186 0 
1 -112 -36 0 
1 165 147 0 
1 54 42 0 
1 -166 111 0 
1 142 -81 0 
1 126 40 0 
1 -95 188 0 
1 102 53 0 
1 -160 67 0 
1 148 -87 0 
1 -145 -60 0 
1 -77 -172 0 
1 -177 183 0 
1 -77 142 0 
1 144 -44 0 
1 156 -104 0 
1 -18 -163 0 
1 -172 94 0 
1 43 -23 0 
1 111 21 0 
1 -51 87 0 
1 103 -142 0 
1 177 -169 0 
1 24 -32 0 
1 -144 -112 0 
1 17 185 0 
1 -26 110 0 
1 -168 110 0 
1 -124 60 0 
1 117 143 0 
1 -136 -106 0 
1 -124 140 0 
1 -171 176 0 
1 -124 156 0 
1 182 -118 0 
1 -32 -68 0 
1 90 -21 0 
1 151 181 0 
1 88 -158 0 
1 160 -15 0 
1 185 27 0 
1 50 91 0 
1 65 32 0 
1 -181 177 0 
1 -45 62 0 
1 187 5 0 
1 153 -182 0 
1 156 -139 0 
1 -18 10 0 
1 -123 -139 0 
1 22 -92 0 
1 153 85 0 
1 -12 156 0 
1 -100 -178 0 
1 -28 -157 0 
1 -19 33 0 
1 -45 78 0 
1 60 -101 0 
1 27 172 0 
1 -129 111 0 
1 39 138 0 
1 -63 -161 0 
1 106 6 0 
1 159 30 0 
1 -34 1 0 
1 -32 -67 0 
1 -149 -173 0 
1 -47 35 0 
1 124 -8 0 
1 -80 -84 0 
1 68 36 0 
1 161 -49 0 
1 39 74 0 
1 -121 151 0 
1 -10 -169 0 
1 -102 -20 0 
1 54 -25 0 
1 -141 -189 0 
1 -85 -97 0 
1 91 1 0 
1 160 22 0 
1 -47 -175 0 
1 80 103 0 
1 -36 -33 0 
1 -128 -169 0 
1 82 27 0 
1 -150 -57 0 
1 58 50 0 
1 103 188 0 
1 31 -5 0 
1 -185 163 0 
1 148 -72 0 
1 92 -34 0 
1 98 190 0 
1 189 133 0 
1 -17 145 0 
1 -47 110 0 
1 -100 -110 0 
1 101 23 0 
1 -11 155 0 
1 143 62 0 
1 -154 54 0 
1 -69 -59 0 
1 -126 -167 0 
1 -158 -176 0 
1 103 63 0 
1 -2 -63 0 
1 -60 -179 0 
1 124 184 0 
1 184 21 0 
1 35 -103 0 
1 -49 14 0 
1 -175 1 0 
1 -28 -145 0 
1 135 61 0 
1 160 90 0 
1 -176 -133 0 
1 -53 189 0 
1 86 -113 0 
1 63 -116 0 
1 96 -72 0 
1 -90 186 0 
1 58 -135 0 
1 24 101 0 
1 -163 -60 0 
1 -139 12 0 
1 -177 -121 0 
1 24 182 0 
1 140 -160 0 
1 138 113 0 
1 -125 -56 0 
1 -69 -88 0 
1 -87 90 0 
1 -126 -129 0 
1 -171 -14 0 
1 158 -43 0 
1 3 47 0 
1 160 108 0 
1 -68 180 0 
1 31 -167 0 
1 159 4 0 
1 -176 -161 0 
1 -104 91 0 
1 132 121 0 
1 166 137 0 
1 46 160 0 
1 167 -190 0 
1 -128 -75 0 
1 -166 36 0 
1 116 170 0 
1 -156 53 0 
1 -40 168 0 
1 -59 132 0 
1 -155 -87 0 
1 150 -110 0 
1 60 -52 0 
1 -152 -55 0 
1 -11 -106 0 
1 181 -110 0 
1 -12 41 0 
1 93 151 0 
1 67 -62 0 
1 -33 158 0 
1 -102 -45 0 
1 27 -130 0 
1 66 85 0 
1 36 190 0 
1 -109 -131 0 
1 -23 -106 0 
1 77 28 0 
1 -141 117 0 
1 -68 190 0 
1 -162 67 0 
1 -177 128 0 
1 174 -12 0 
1 -54 -93 0 
1 -66 -64 0 
1 100 177 0 
1 -31 167 0 
1 64 98 0 
1 17 173 0 
1 -178 84 0 
1 96 -87 0 
1 166 -110 0 
1 3 -146 0 
1 1 -186 0 
1 11 18 0 
1 116 31 0 
1 157 -54 0 
1 103 -144 0 
1 13 -106 0 
1 -108 -96 0 
1 -93 21 0 
1 10 31 0 
1 -41 20 0 
1 -65 174 0 
1 87 -35 0 
1 70 -173 0 
1 19 145 0 
1 -169 112 0 
1 -178 114 0 
1 170 125 0 
1 -175 124 0 
1 -10 155 0 
1 189 171 0 
1 -100 -44 0 
1 -163 4 0 
1 -106 128 0 
1 -3 156 0 
1 -189 19 0 
1 -103 -111 0 
1 97 -109 0 
1 75 62 0 
1 187 -50 0 
1 -143 -151 0 
1 -94 -21 0 
1 83 186 0 
1 48 -156 0 
1 130 106 0 
1 -81 -149 0 
1 -149 -170 0 
1 -129 15 0 
1 100 11 0 
1 104 -96 0 
1 -75 109 0 
1 70 128 0 
1 178 124 0 
1 13 65 0 
1 189 64 0 
1 176 -167 0 
1 -104 6 0 
1 56 -7 0 
1 158 92 0 
1 141 16 0 
1 94 -20 0 
